Route #1: 1 1 5 30 42 26 20 11 1 
Route #2: 1 10 36 2 18 29 13 43 1 
Route #3: 1 7 9 41 44 23 32 8 4 17 16 1 
Route #4: 1 25 22 27 33 21 34 6 1 
Route #5: 1 15 40 35 19 37 28 12 39 1 
Route #6: 1 38 31 3 14 24 1 

Cost 920.962
Time 0.3166


 * Another infos *

 Iterations: 45 Time: 0.3166 sec - 0.0053 min - 0.0001 horas
0.0000 h 0.0053 min
Problem dimension: 45
